30
0 1 0.64 0.24
0 2 0.65 0.2
0 3 0.56 0.22
0 4 0.7 0.1
0 5 0.64 0.24
0 6 0.42 0.26
0 7 0.73 0.25
0 8 0.57 0.11
0 9 0.42 0.24
0 10 0.45 0.08
0 11 0.3 0.13
0 12 0.4 0.08
0 13 0.59 0.2
0 14 0.52 0.17
0 15 0.44 0.29
0 16 0.31 0.06
0 17 0.53 0.17
0 18 0.04 0.0
0 19 0.64 0.16
0 20 0.43 0.12
0 21 0.58 0.16
0 22 0.26 0.02
0 23 0.51 0.1
0 24 0.58 0.24
0 25 0.6 0.24
0 26 0.62 0.08
0 27 0.39 0.14
0 28 0.44 0.16
0 29 0.36 0.08
1 2 0.51 0.3
1 3 0.58 0.22
1 4 0.48 0.18
1 5 0.44 0.22
1 6 0.72 0.34
1 7 0.64 0.26
1 8 0.61 0.25
1 9 0.79 0.33
1 10 0.56 0.19
1 11 0.48 0.34
1 12 0.64 0.32
1 13 0.51 0.28
1 14 0.54 0.36
1 15 0.44 0.22
1 16 0.64 0.3
1 17 0.75 0.34
1 18 0.6 0.24
1 19 0.66 0.35
1 20 0.41 0.29
1 21 0.36 0.27
1 22 0.74 0.25
1 23 0.58 0.18
1 24 0.38 0.22
1 25 0.78 0.28
1 26 0.72 0.2
1 27 0.37 0.3
1 28 0.66 0.33
1 29 0.46 0.3
2 3 0.58 0.24
2 4 0.58 0.24
2 5 0.66 0.25
2 6 0.62 0.26
2 7 0.68 0.21
2 8 0.78 0.21
2 9 0.28 0.14
2 10 0.27 0.12
2 11 0.38 0.33
2 12 0.46 0.15
2 13 0.65 0.24
2 14 0.74 0.1
2 15 0.47 0.17
2 16 0.54 0.26
2 17 0.36 0.08
2 18 0.69 0.2
2 19 0.56 0.23
2 20 0.36 0.13
2 21 0.6 0.14
2 22 0.53 0.18
2 23 0.52 0.26
2 24 0.57 0.28
2 25 0.58 0.23
2 26 0.55 0.22
2 27 0.4 0.15
2 28 0.44 0.17
2 29 0.54 0.28
3 4 0.74 0.22
3 5 0.78 0.3
3 6 0.48 0.37
3 7 0.38 0.29
3 8 0.44 0.22
3 9 0.3 0.28
3 10 0.6 0.29
3 11 0.47 0.21
3 12 0.69 0.3
3 13 0.72 0.3
3 14 0.64 0.3
3 15 0.52 0.33
3 16 0.51 0.16
3 17 0.68 0.28
3 18 0.52 0.22
3 19 0.3 0.13
3 20 0.45 0.23
3 21 0.52 0.3
3 22 0.3 0.23
3 23 0.58 0.3
3 24 0.4 0.19
3 25 0.43 0.27
3 26 0.74 0.24
3 27 0.49 0.21
3 28 0.73 0.27
3 29 0.56 0.16
4 5 0.48 0.24
4 6 0.68 0.18
4 7 0.82 0.2
4 8 0.76 0.17
4 9 0.8 0.3
4 10 0.59 0.14
4 11 0.54 0.17
4 12 0.8 0.18
4 13 0.72 0.1
4 14 0.56 0.18
4 15 0.4 0.19
4 16 0.68 0.16
4 17 0.6 0.16
4 18 0.66 0.1
4 19 0.7 0.21
4 20 0.46 0.11
4 21 0.7 0.22
4 22 0.44 0.08
4 23 0.61 0.15
4 24 0.38 0.18
4 25 0.42 0.25
4 26 0.72 0.02
4 27 0.42 0.13
4 28 0.7 0.15
4 29 0.74 0.12
5 6 0.58 0.12
5 7 0.4 0.04
5 8 0.44 0.13
5 9 0.7 0.11
5 10 0.59 0.24
5 11 0.51 0.31
5 12 0.35 0.19
5 13 0.7 0.2
5 14 0.45 0.19
5 15 0.46 0.28
5 16 0.53 0.23
5 17 0.82 0.17
5 18 0.6 0.24
5 19 0.74 0.24
5 20 0.54 0.16
5 21 0.6 0.24
5 22 0.69 0.22
5 23 0.8 0.29
5 24 0.62 0.31
5 25 0.68 0.26
5 26 0.77 0.22
5 27 0.58 0.18
5 28 0.22 0.12
5 29 0.6 0.31
6 7 0.36 0.08
6 8 0.54 0.25
6 9 0.47 0.23
6 10 0.42 0.2
6 11 0.64 0.35
6 12 0.68 0.31
6 13 0.44 0.08
6 14 0.79 0.21
6 15 0.28 0.2
6 16 0.58 0.27
6 17 0.36 0.19
6 18 0.38 0.26
6 19 0.48 0.24
6 20 0.49 0.14
6 21 0.69 0.12
6 22 0.6 0.24
6 23 0.65 0.31
6 24 0.66 0.29
6 25 0.66 0.26
6 26 0.37 0.2
6 27 0.52 0.16
6 28 0.46 0.18
6 29 0.52 0.3
7 8 0.48 0.17
7 9 0.4 0.15
7 10 0.49 0.2
7 11 0.43 0.35
7 12 0.6 0.23
7 13 0.79 0.16
7 14 0.66 0.15
7 15 0.64 0.28
7 16 0.42 0.19
7 17 0.46 0.13
7 18 0.69 0.25
7 19 0.62 0.28
7 20 0.5 0.18
7 21 0.7 0.2
7 22 0.62 0.24
7 23 0.69 0.3
7 24 0.7 0.33
7 25 0.48 0.22
7 26 0.73 0.18
7 27 0.54 0.2
7 28 0.51 0.16
7 29 0.68 0.32
8 9 0.68 0.24
8 10 0.66 0.15
8 11 0.74 0.24
8 12 0.52 0.19
8 13 0.4 0.27
8 14 0.39 0.24
8 15 0.54 0.22
8 16 0.4 0.17
8 17 0.48 0.24
8 18 0.61 0.11
8 19 0.74 0.25
8 20 0.42 0.19
8 21 0.46 0.23
8 22 0.74 0.09
8 23 0.77 0.16
8 24 0.44 0.31
8 25 0.66 0.16
8 26 0.64 0.15
8 27 0.38 0.21
8 28 0.59 0.23
8 29 0.64 0.19
9 10 0.41 0.23
9 11 0.34 0.2
9 12 0.44 0.27
9 13 0.58 0.31
9 14 0.46 0.24
9 15 0.45 0.17
9 16 0.6 0.3
9 17 0.64 0.22
9 18 0.46 0.24
9 19 0.6 0.3
9 20 0.64 0.27
9 21 0.82 0.28
9 22 0.38 0.22
9 23 0.62 0.28
9 24 0.42 0.35
9 25 0.73 0.23
9 26 0.69 0.28
9 27 0.68 0.29
9 28 0.48 0.23
9 29 0.68 0.25
10 11 0.65 0.21
10 12 0.68 0.16
10 13 0.42 0.24
10 14 0.7 0.21
10 15 0.58 0.29
10 16 0.5 0.14
10 17 0.63 0.2
10 18 0.49 0.08
10 19 0.34 0.17
10 20 0.63 0.16
10 21 0.56 0.08
10 22 0.3 0.06
10 23 0.25 0.14
10 24 0.38 0.28
10 25 0.75 0.31
10 26 0.28 0.12
10 27 0.64 0.17
10 28 0.71 0.2
10 29 0.64 0.16
11 12 0.7 0.21
11 13 0.56 0.27
11 14 0.55 0.3
11 15 0.68 0.31
11 16 0.61 0.19
11 17 0.61 0.3
11 18 0.34 0.13
11 19 0.5 0.29
11 20 0.54 0.25
11 21 0.71 0.29
11 22 0.44 0.15
11 23 0.4 0.18
11 24 0.3 0.15
11 25 0.9 0.25
11 26 0.64 0.19
11 27 0.5 0.27
11 28 0.7 0.24
11 29 0.48 0.05
12 13 0.74 0.28
12 14 0.49 0.25
12 15 0.4 0.28
12 16 0.18 0.14
12 17 0.78 0.23
12 18 0.36 0.08
12 19 0.52 0.22
12 20 0.52 0.18
12 21 0.46 0.24
12 22 0.58 0.1
12 23 0.45 0.18
12 24 0.46 0.16
12 25 0.5 0.32
12 26 0.59 0.16
12 27 0.56 0.2
12 28 0.48 0.22
12 29 0.66 0.16
13 14 0.6 0.28
13 15 0.34 0.26
13 16 0.76 0.26
13 17 0.6 0.26
13 18 0.6 0.2
13 19 0.46 0.26
13 20 0.29 0.21
13 21 0.62 0.2
13 22 0.72 0.18
13 23 0.65 0.25
13 24 0.71 0.28
13 25 0.58 0.32
13 26 0.37 0.12
13 27 0.33 0.23
13 28 0.61 0.25
13 29 0.4 0.22
14 15 0.51 0.18
14 16 0.62 0.21
14 17 0.72 0.02
14 18 0.48 0.17
14 19 0.78 0.17
14 20 0.48 0.07
14 21 0.58 0.18
14 22 0.4 0.15
14 23 0.64 0.23
14 24 0.36 0.22
14 25 0.72 0.24
14 26 0.6 0.16
14 27 0.44 0.09
14 28 0.64 0.11
14 29 0.54 0.25
15 16 0.5 0.26
15 17 0.64 0.2
15 18 0.48 0.29
15 19 0.71 0.3
15 20 0.58 0.2
15 21 0.41 0.31
15 22 0.46 0.27
15 23 0.72 0.34
15 24 0.68 0.35
15 25 0.38 0.06
15 26 0.65 0.21
15 27 0.62 0.22
15 28 0.5 0.16
15 29 0.58 0.26
16 17 0.6 0.23
16 18 0.27 0.06
16 19 0.58 0.22
16 20 0.64 0.18
16 21 0.28 0.18
16 22 0.49 0.08
16 23 0.59 0.16
16 24 0.64 0.26
16 25 0.32 0.3
16 26 0.49 0.14
16 27 0.68 0.2
16 28 0.51 0.22
16 29 0.48 0.14
17 18 0.52 0.17
17 19 0.76 0.15
17 20 0.48 0.05
17 21 0.56 0.16
17 22 0.38 0.15
17 23 0.66 0.23
17 24 0.52 0.2
17 25 0.54 0.23
17 26 0.73 0.14
17 27 0.46 0.07
17 28 0.6 0.09
17 29 0.85 0.25
18 19 0.6 0.16
18 20 0.47 0.12
18 21 0.54 0.16
18 22 0.22 0.02
18 23 0.48 0.1
18 24 0.62 0.24
18 25 0.59 0.24
18 26 0.66 0.08
18 27 0.43 0.14
18 28 0.4 0.16
18 29 0.4 0.08
19 20 0.62 0.1
19 21 0.3 0.17
19 22 0.38 0.16
19 23 0.59 0.24
19 24 0.7 0.25
19 25 0.48 0.28
19 26 0.62 0.19
19 27 0.58 0.08
19 28 0.62 0.14
19 29 0.58 0.24
20 21 0.52 0.11
20 22 0.43 0.1
20 23 0.5 0.18
20 24 0.58 0.15
20 25 0.59 0.18
20 26 0.4 0.09
20 27 0.04 0.02
20 28 0.32 0.04
20 29 0.38 0.2
21 22 0.68 0.14
21 23 0.31 0.19
21 24 0.74 0.26
21 25 0.42 0.29
21 26 0.46 0.2
21 27 0.56 0.09
21 28 0.38 0.15
21 29 0.68 0.24
22 23 0.55 0.08
22 24 0.6 0.22
22 25 0.6 0.25
22 26 0.58 0.06
22 27 0.39 0.12
22 28 0.51 0.14
22 29 0.61 0.1
23 24 0.44 0.17
23 25 0.55 0.32
23 26 0.28 0.13
23 27 0.54 0.2
23 28 0.69 0.22
23 29 0.8 0.18
24 25 0.68 0.33
24 26 0.34 0.16
24 27 0.62 0.17
24 28 0.4 0.19
24 29 0.46 0.19
25 26 0.48 0.27
25 27 0.63 0.2
25 28 0.46 0.22
25 29 0.58 0.2
26 27 0.36 0.11
26 28 0.72 0.13
26 29 0.64 0.14
27 28 0.36 0.06
27 29 0.42 0.22
28 29 0.46 0.19
